NAME : portcgen-22-6
COMMENT : portcgen N=22, seed=6
TYPE : TSP
DIMENSION : 22
EDGE_WEIGHT_TYPE : EUC_2D
NODE_COORD_SECTION
1 -79018 167556
2 67266 -144278
3 183265 10805
4 103580 226520
5 -131811 150634
6 68125 -105368
7 286124 479097
8 162431 -196649
9 -106208 -147744
10 55229 -297589
11 133449 -70627
12 -162024 111854
13 -197639 -298410
14 3434 30847
15 138337 305107
16 -105590 -27362
17 137077 -295040
18 7837 -29867
19 114630 121715
20 140159 167257
21 -385282 52356
22 -39088 -209201
